c User generated cnf file
p cnf 12 55
9 -6 6 0 
6 5 -4 0 
-2 1 10 0 
2 4 -4 0 
1 -4 12 0 
-3 6 11 0 
-8 7 12 0 
7 -2 10 0 
11 9 -6 0 
-10 7 1 0 
8 11 -1 0 
3 -3 11 0 
-6 4 11 0 
6 7 -8 0 
-2 1 12 0 
4 -12 5 0 
9 8 -5 0 
11 -8 1 0 
5 6 -3 0 
-6 10 7 0 
5 4 -3 0 
5 1 -12 0 
3 3 -2 0 
11 7 -9 0 
1 10 -9 0 
9 7 -11 0 
3 11 -2 0 
11 -6 11 0 
-1 12 9 0 
8 -3 6 0 
8 -3 5 0 
8 -4 3 0 
-1 8 8 0 
-11 5 10 0 
7 11 -8 0 
-9 10 5 0 
-3 12 6 0 
8 6 -7 0 
10 3 -6 0 
-2 3 2 0 
1 -11 5 0 
11 -11 8 0 
8 -12 1 0 
2 -8 1 0 
8 3 -1 0 
1 -9 2 0 
-8 10 1 0 
4 -8 7 0 
-1 9 11 0 
11 3 -8 0 
-12 4 12 0 
9 -9 11 0 
-4 2 5 0 
-10 5 9 0 
-10 11 1 0 
